0 2036
1 1949
2 1916
3 1857
4 1766
5 1632
6 1603
7 1603
8 1603
9 1553
10 1532
11 1469
12 1469
13 1443
14 1411
15 1339
16 1334
17 1334
18 1307
19 1307
20 1307
21 1307
22 1298
23 1298
24 1298
25 1298
26 1273
27 1261
28 1261
29 1257
30 1231
31 1222
32 1174
33 1174
34 1174
35 1174
36 1148
37 1146
38 1146
39 1118
40 1118
41 1092
42 1082
43 1082
44 1064
45 1053
46 1047
47 1047
48 1029
49 1029
50 1001
51 1001
52 987
53 987
54 987
55 987
56 987
57 983
58 980
59 980
60 980
61 979
62 979
63 967
64 967
65 967
66 967
67 967
68 967
69 961
70 961
71 961
72 961
73 944
74 944
75 944
76 944
77 944
78 944
79 944
80 944
81 941
82 941
83 941
84 941
85 936
86 936
87 936
88 936
89 935
90 933
91 932
92 932
93 925
94 925
95 925
96 925
97 925
98 923
99 923
100 923
101 920
102 920
103 920
104 920
105 920
106 920
107 920
108 920
109 920
110 920
111 918
112 918
113 918
114 918
115 918
116 918
117 918
118 918
119 907
120 907
121 907
122 907
123 907
124 907
125 907
126 907
127 907
128 907
129 907
130 907
131 907
132 907
133 907
134 907
135 907
136 904
137 904
138 904
139 899
140 899
141 899
142 899
143 899
144 899
145 898
146 898
147 898
148 898
149 897
150 897
151 897
152 897
153 897
154 897
155 897
156 897
157 897
158 897
159 897
160 897
161 897
162 897
163 897
164 897
165 897
166 897
167 897
168 897
169 897
170 896
171 896
172 896
173 896
174 896
175 896
176 896
177 896
178 896
179 896
180 896
181 896
182 896
183 896
184 896
185 896
186 896
187 896
188 896
189 896
190 896
191 896
192 896
193 894
194 894
195 894
196 894
197 894
198 894
199 894
200 894
201 894
202 894
203 894
204 894
205 894
206 894
207 894
208 894
209 894
210 894
211 894
212 894
213 894
214 894
215 894
216 894
217 894
218 894
219 894
220 894
221 894
222 894
223 894
224 894
225 894
226 894
227 894
228 894
229 894
230 894
231 894
232 894
233 894
234 894
235 894
236 894
237 894
238 894
239 894
240 894
241 894
242 894
243 894
244 894
245 894
246 894
247 894
248 894
249 894
250 894
251 894
252 894
253 894
254 894
255 894
256 894
257 894
258 894
259 894
260 894
261 894
262 894
263 894
264 894
265 894
266 894
267 894
268 894
269 894
270 894
271 894
272 894
273 894
274 894
275 894
276 894
277 894
278 894
279 894
280 894
281 894
282 894
283 894
284 894
285 894
286 894
287 894
288 894
289 894
290 894
291 894
292 894
293 894
294 894
295 894
296 894
297 894
298 894
299 894
300 894
301 894
302 894
303 894
304 894
305 894
306 894
307 894
308 894
309 894
310 894
311 894
312 894
313 894
314 894
315 894
316 894
317 894
318 894
319 894
320 894
321 894
322 894
323 894
324 894
325 894
326 894
327 894
328 894
329 894
330 894
331 894
332 894
333 894
334 894
335 894
336 894
337 894
338 894
339 894
340 894
341 894
342 894
343 894
344 894
345 894
346 894
347 894
348 894
349 894
350 894
351 894
352 894
353 894
354 894
355 894
356 894
357 894
358 894
359 894
360 894
361 894
362 894
363 894
364 894
365 894
366 894
367 894
368 894
369 894
370 894
371 894
372 894
373 894
374 894
375 894
376 894
377 894
378 894
379 894
380 894
381 894
382 894
383 894
384 894
385 894
386 894
387 894
388 894
389 894
390 894
391 894
392 894
393 894
394 894
395 894
396 894
397 894
398 894
399 894
400 894
401 894
402 894
403 894
404 894
405 894
406 894
407 894
408 894
409 894
410 894
411 894
412 894
413 894
414 894
415 894
416 894
417 894
418 894
419 887
420 887
421 887
422 887
423 887
424 887
425 887
426 887
427 887
428 859
429 859
430 859
431 859
432 859
433 859
434 859
435 859
436 859
437 856
438 856
439 852
440 852
441 852
442 852
443 847
444 847
445 847
446 847
447 847
448 847
449 847
450 847
451 847
452 847
453 847
454 847
455 847
456 847
457 847
458 847
459 847
460 847
461 847
462 847
463 847
464 847
465 847
466 847
467 847
468 847
469 847
470 847
471 847
472 847
473 847
474 847
475 847
476 847
477 847
478 847
479 847
480 847
481 847
482 847
483 847
484 847
485 847
486 847
487 847
488 847
489 847
490 847
491 847
492 847
493 847
494 847
495 847
496 847
497 847
498 847
499 847
500 847
501 847
502 847
503 847
504 847
505 847
506 847
507 847
508 847
509 847
510 847
511 847
512 847
513 847
514 847
515 847
516 847
517 847
518 847
519 847
520 847
521 847
522 847
523 847
524 847
525 847
526 847
527 847
528 847
529 847
530 847
531 847
532 847
533 847
534 847
535 847
536 847
537 847
538 847
539 847
540 847
541 847
542 847
543 847
544 847
545 847
546 847
547 847
548 847
549 847
550 847
551 847
552 847
553 847
554 847
555 847
556 847
557 847
558 847
559 847
560 847
561 847
562 847
563 847
564 847
565 847
566 847
567 847
568 847
569 847
570 847
571 847
572 847
573 847
574 847
575 847
576 847
577 847
578 847
579 847
580 847
581 847
582 847
583 847
584 847
585 847
586 847
587 847
588 847
589 847
590 847
591 847
592 847
593 847
594 847
595 847
596 847
597 847
598 847
599 847
600 847
601 847
602 847
603 847
604 847
605 847
606 847
607 847
608 847
609 847
610 847
611 847
612 847
613 847
614 847
615 847
616 847
617 847
618 847
619 847
620 847
621 847
622 847
623 847
624 847
625 847
626 847
627 847
628 847
629 847
630 847
631 847
632 847
633 847
634 847
635 847
636 847
637 847
638 847
639 847
640 847
641 847
642 847
643 847
644 847
645 847
646 847
647 847
648 847
649 847
650 847
651 847
652 847
653 847
654 847
655 847
656 847
657 847
658 847
659 847
660 847
661 847
662 847
663 847
664 847
665 847
666 847
667 847
668 847
669 847
670 847
671 847
672 847
673 847
674 847
675 847
676 847
677 847
678 847
679 847
680 847
681 847
682 847
683 847
684 847
685 847
686 847
687 847
688 847
689 847
690 847
691 847
692 847
693 847
694 847
695 847
696 847
697 847
698 847
699 847
700 847
701 847
702 847
703 847
704 847
705 847
706 847
707 847
708 847
709 847
710 847
711 847
712 847
713 847
714 847
715 847
716 847
717 847
718 847
719 847
720 847
721 847
722 847
723 847
724 847
725 847
726 847
727 847
728 847
729 847
730 847
731 847
732 847
733 847
734 847
735 847
736 847
737 847
738 847
739 847
740 847
741 847
742 847
743 847
744 847
745 847
746 847
747 847
748 847
749 847
750 847
751 847
752 847
753 847
754 847
755 847
756 847
757 847
758 847
759 847
760 847
761 847
762 847
763 847
764 847
765 847
766 847
767 847
768 847
769 847
770 847
771 847
772 847
773 847
774 847
775 847
776 847
777 847
778 847
779 847
780 847
781 847
782 847
783 847
784 847
785 847
786 847
787 847
788 847
789 847
790 847
791 847
792 847
793 847
794 847
795 847
796 847
797 847
798 847
799 847
800 847
801 847
802 847
803 847
804 847
805 847
806 847
807 847
808 847
809 847
810 847
811 847
812 847
813 847
814 847
815 847
816 847
817 847
818 847
819 847
820 847
821 847
822 847
823 847
824 847
825 847
826 847
827 847
828 847
829 847
830 847
831 847
832 847
833 847
834 847
835 847
836 847
837 847
838 847
839 847
840 847
841 847
842 847
843 847
844 847
845 847
846 847
847 847
848 847
849 847
850 847
851 847
852 847
853 847
854 847
855 847
856 847
857 847
858 847
859 847
860 847
861 847
862 847
863 847
864 847
865 847
866 847
867 847
868 847
869 847
870 847
871 847
872 847
873 847
874 847
875 847
876 847
877 847
878 847
879 847
880 847
881 847
882 847
883 847
884 847
885 847
886 847
887 847
888 847
889 847
890 847
891 847
892 847
893 847
894 847
895 847
896 847
897 847
898 847
899 847
900 847
901 847
902 847
903 847
904 847
905 847
906 847
907 847
908 847
909 847
910 847
911 847
912 847
913 847
914 847
915 847
916 847
917 847
918 847
919 847
920 847
921 847
922 847
923 847
924 847
925 847
926 847
927 847
928 847
929 847
930 847
931 847
932 847
933 847
934 847
935 847
936 847
937 847
938 847
939 847
940 847
941 847
942 847
943 847
944 847
945 847
946 847
947 847
948 847
949 847
950 847
951 847
952 847
953 847
954 847
955 847
956 847
957 847
958 847
959 847
960 847
961 847
962 847
963 847
964 847
965 847
966 847
967 847
968 847
969 847
970 847
971 847
972 847
973 847
974 847
975 847
976 847
977 847
978 847
979 847
980 847
981 847
982 847
983 847
984 847
985 847
986 847
987 847
988 847
989 847
990 847
991 847
992 847
993 847
994 847
995 847
996 847
997 847
998 847
999 847
Best: [[31,17,2,13],
       [7,10,23,16,11,26,30],
       [15,19,9,12,5,29,24,3,4],
       [22,32,20,18,14,8,27],
       [25,28,6,21]], fitness: 847
